Route #1: 0 67 26 12 7 35 53 14 54 13 27 52 8 46 34 45 4 75 0
Route #2: 0 6 33 16 63 62 22 64 42 43 41 56 23 24 3 44 18 25 32 17 0
Route #3: 0 68 2 73 1 61 28 74 48 21 47 47 36 69 71 60 70 20 37 5 15 57 29 30 0
Route #4: 0 40 9 39 72 58 10 38 11 19 59 66 65 31 55 50 49 51 0
Cost 729:
